c 
p cnf 10 40
5 -2 3 0
2 -6 10 0
1 -8 -9 0
-4 6 1 0
1 4 -5 0
-2 6 -9 0
-2 6 9 0
-6 8 -9 0
-10 -8 4 0
10 2 6 0
1 5 6 0
8 3 -6 0
7 -4 5 0
-9 -4 -10 0
7 6 -2 0
3 -10 -5 0
1 10 -4 0
9 -2 1 0
-5 7 -1 0
-9 -2 7 0
3 6 -10 0
7 2 1 0
-1 7 4 0
-7 -1 -2 0
5 6 7 0
7 5 2 0
4 -5 2 0
6 7 -1 0
-10 2 -7 0
6 9 7 0
1 4 5 0
7 -10 3 0
3 10 -8 0
5 -10 9 0
8 -6 -9 0
6 -9 1 0
2 10 -7 0
3 -10 5 0
4 -2 -6 0
-8 -1 -5 0
